GRIDRANGE_X = 0..60;
GRIDRANGE_Y = 0..40;

BUILDING = { RU1, RU2, RU3, RU4, RU5, RU6, RU7, RU8, SHR1, SHR2, SHR3, SHR4, SHR5, SHR6, SHR7, SHR8,
             SEED1, PLANT1, PLANT2, SEED2, PLANT3, PLANT4, SHR9, SHR10,
             GRIND1, GRIND2, GRIND3, GRIND4, RU9, RU10, RU11, RU12, MOULD1, MOULD2,
             SEED3, PLANT5, PLANT6, SEED4, PLANT7, PLANT8, SHR11, SHR12,
             GRIND5, GRIND6, FILL1 };
NS_WIDTH = [3, 3, 3, 3, 3, 3, 3, 3, 3, 3, 3, 3, 3, 3, 3, 3, 5, 5, 5, 5, 5, 5, 3, 3, 6, 6, 6, 6, 3, 3, 3, 3, 3, 3, 5, 5, 5, 5, 5, 5, 3, 3, 6, 6, 6];
EW_WIDTH = [3, 3, 3, 3, 3, 3, 3, 3, 3, 3, 3, 3, 3, 3, 3, 3, 5, 5, 5, 5, 5, 5, 3, 3, 4, 4, 4, 4, 3, 3, 3, 3, 3, 3, 5, 5, 5, 5, 5, 5, 3, 3, 4, 4, 4];

CONVEYOR_FROM = [<>,<>,<>,<>,<>,<>,<>,<>,RU1,RU2,RU3,RU4,RU5,RU6,RU7,RU8,SEED1,SEED1,PLANT1,PLANT2,SEED2,SEED2,PLANT3,PLANT4,SHR1,SHR2,SHR3,SHR4,SHR5,SHR6,SHR7,SHR8,SHR9,SHR9,SHR10,SHR10,GRIND1,GRIND2,GRIND3,GRIND4,GRIND1,GRIND2,GRIND3,GRIND4,SEED3,SEED3,PLANT5,PLANT6,SEED4,SEED4,PLANT7,PLANT8,SHR9,SHR10,SHR11,SHR11,SHR12,SHR12,MOULD1,MOULD2,GRIND5,GRIND6];
CONVEYOR_TO   = [RU1,RU2,RU3,RU4,RU5,RU6,RU7,RU8,SHR1,SHR2,SHR3,SHR4,SHR5,SHR6,SHR7,SHR8,PLANT1,PLANT2,SEED1,SHR9,PLANT3,PLANT4,SEED2,SHR10,GRIND1,GRIND1,GRIND2,GRIND2,GRIND3,GRIND3,GRIND4,GRIND4,GRIND1,GRIND2,GRIND3,GRIND4,RU9,RU10,RU11,RU12,MOULD1,MOULD1,MOULD2,MOULD2,PLANT5,PLANT6,SEED3,SHR11,PLANT7,PLANT8,SEED4,SHR12,GRIND5,GRIND6,GRIND5,GRIND5,GRIND6,GRIND6,FILL1,FILL1,FILL1,FILL1];

PICKUP_X = [0, 0, 0, 0, 0, 0, 0, 0];
PICKUP_Y = [1, 4, 7, 10, 13, 16, 19, 22];
PICKUP_ORIENTATION = [EAST, EAST, EAST, EAST, EAST, EAST, EAST, EAST];


FORCE_EAST = [RU1, RU2, RU3, RU4, RU5, RU6, RU7, RU8, SHR1, SHR2, SHR3, SHR4, SHR5, SHR6, SHR7, SHR8];
FORCE_X1 = [RU1, RU2, RU3, RU4, RU5, RU6, RU7, RU8];
FORCE_Y_ASC = [RU1, RU2, RU3, RU4, RU5, RU6, RU7, RU8];

FORCE_POS_ASC = [SHR1, SHR2, SHR3, SHR4, SHR5, SHR6, SHR7, SHR8];
