GRIDRANGE_X = 0..40;
GRIDRANGE_Y = 0..30;

BUILDING = { SHR1, SHR2, SHR3, SHR4, SHR5, SHR6,
             SEED1, PLANT1, PLANT2, SEED2, PLANT3, PLANT4, SHR7, SHR8,
             GRIND1, GRIND2, GRIND3,
             RU1, RU2, RU3, RU4, SHR9, SHR10, SHR11, SHR12,
             GRIND4, GRIND5, RU5, RU6, FU1, FU2, PACKU1 };
NS_WIDTH = [3, 3, 3, 3, 3, 3, 5, 5, 5, 5, 5, 5, 3, 3, 6, 6, 6, 3, 3, 3, 3, 3, 3, 3, 3, 6, 6, 3, 3, 3, 3, 6];
EW_WIDTH = [3, 3, 3, 3, 3, 3, 5, 5, 5, 5, 5, 5, 3, 3, 4, 4, 4, 3, 3, 3, 3, 3, 3, 3, 3, 4, 4, 3, 3, 3, 3, 4];

CONVEYOR_FROM = [<>,<>,<>,<>,<>,<>,<>,<>,<>,<>,SHR1,SHR2,SHR3,SHR4,SHR5,SHR6,SEED1,SEED1,PLANT1,PLANT2,SEED2,SEED2,PLANT3,PLANT4,SHR7,SHR7,SHR7,RU1,RU2,RU3,RU4,SHR8,SHR8,SHR9,SHR10,SHR11,SHR12,GRIND4,GRIND5,RU5,RU6,GRIND1,GRIND2,GRIND3,FU1,FU2];
CONVEYOR_TO   = [SHR1,SHR2,SHR3,SHR4,SHR5,SHR6,RU1,RU2,RU3,RU4,GRIND1,GRIND1,GRIND2,GRIND2,GRIND3,GRIND3,PLANT1,PLANT2,SEED1,SHR7,PLANT3,PLANT4,SEED2,SHR8,GRIND1,GRIND2,GRIND3,SHR9,SHR10,SHR11,SHR12,GRIND4,GRIND5,GRIND4,GRIND4,GRIND5,GRIND5,RU5,RU6,FU1,FU2,PACKU1,PACKU1,PACKU1,PACKU1,PACKU1];

PICKUP_X = [0, 0, 0,  0,  0,  0,  0,  0,  0,  0];
PICKUP_Y = [1, 4, 7, 10, 13, 16, 19, 22, 25, 28];
PICKUP_ORIENTATION = [EAST, EAST, EAST, EAST, EAST, EAST, EAST, EAST, EAST, EAST];
