GRIDRANGE_X = 1..20;
GRIDRANGE_Y = 1..9;

BUILDING = { SHR1, SHR2, RU1, FU1, PACKU1 };
NS_WIDTH = [    3,    3,   3,   3,      6 ];
EW_WIDTH = [    3,    3,   3,   3,      4 ];

RESOURCE = { ORIG_ORE, ORIG_PWDR, AMET_ORE, AMET_FIBER, AMET_PART };
BELTS    = [        2,         2,        1,          1,         1 ];

CONVEYOR_FROM     = [    <>  ,     <>  ,      <> ,        RU1,      SHR1,       SHR2,       FU1];
CONVEYOR_TO       = [    SHR1,     SHR2,      RU1,        FU1,    PACKU1,     PACKU1,    PACKU1];
CONVEYOR_RESOURCE = [ORIG_ORE, ORIG_ORE, AMET_ORE, AMET_FIBER, ORIG_PWDR,  ORIG_PWDR, AMET_PART];

PICKUP_X = [1, 1, 1];
PICKUP_Y = [2, 5, 8];
PICKUP_ORIENTATION = [EAST, EAST, EAST];

arc = [|1,2|2,3|3,4|4,5|5,6|6,7|7,8|8,9|9,10|10,11|11,12|12,13|13,14|14,15|15,16|16,17|17,18|18,19|19,20|21,22|22,23|23,24|24,25|25,26|26,27|27,28|28,29|29,30|30,31|31,32|32,33|33,34|34,35|35,36|36,37|37,38|38,39|39,40|41,42|42,43|43,44|44,45|45,46|46,47|47,48|48,49|49,50|50,51|51,52|52,53|53,54|54,55|55,56|56,57|57,58|58,59|59,60|61,62|62,63|63,64|64,65|65,66|66,67|67,68|68,69|69,70|70,71|71,72|72,73|73,74|74,75|75,76|76,77|77,78|78,79|79,80|81,82|82,83|83,84|84,85|85,86|86,87|87,88|88,89|89,90|90,91|91,92|92,93|93,94|94,95|95,96|96,97|97,98|98,99|99,100|101,102|102,103|103,104|104,105|105,106|106,107|107,108|108,109|109,110|110,111|111,112|112,113|113,114|114,115|115,116|116,117|117,118|118,119|119,120|121,122|122,123|123,124|124,125|125,126|126,127|127,128|128,129|129,130|130,131|131,132|132,133|133,134|134,135|135,136|136,137|137,138|138,139|139,140|141,142|142,143|143,144|144,145|145,146|146,147|147,148|148,149|149,150|150,151|151,152|152,153|153,154|154,155|155,156|156,157|157,158|158,159|159,160|161,162|162,163|163,164|164,165|165,166|166,167|167,168|168,169|169,170|170,171|171,172|172,173|173,174|174,175|175,176|176,177|177,178|178,179|179,180|181,201|182,202|183,203|184,204|185,205|186,206|187,207|188,208|189,209|190,210|191,211|192,212|193,213|194,214|195,215|196,216|197,217|198,218|199,219|200,220|201,221|202,222|203,223|204,224|205,225|206,226|207,227|208,228|209,229|210,230|211,231|212,232|213,233|214,234|215,235|216,236|217,237|218,238|219,239|220,240|221,241|222,242|223,243|224,244|225,245|226,246|227,247|228,248|229,249|230,250|231,251|232,252|233,253|234,254|235,255|236,256|237,257|238,258|239,259|240,260|241,261|242,262|243,263|244,264|245,265|246,266|247,267|248,268|249,269|250,270|251,271|252,272|253,273|254,274|255,275|256,276|257,277|258,278|259,279|260,280|261,281|262,282|263,283|264,284|265,285|266,286|267,287|268,288|269,289|270,290|271,291|272,292|273,293|274,294|275,295|276,296|277,297|278,298|279,299|280,300|281,301|282,302|283,303|284,304|285,305|286,306|287,307|288,308|289,309|290,310|291,311|292,312|293,313|294,314|295,315|296,316|297,317|298,318|299,319|300,320|301,321|302,322|303,323|304,324|305,325|306,326|307,327|308,328|309,329|310,330|311,331|312,332|313,333|314,334|315,335|316,336|317,337|318,338|319,339|320,340|321,341|322,342|323,343|324,344|325,345|326,346|327,347|328,348|329,349|330,350|331,351|332,352|333,353|334,354|335,355|336,356|337,357|338,358|339,359|340,360|1,181|2,182|3,183|4,184|5,185|6,186|7,187|8,188|9,189|10,190|11,191|12,192|13,193|14,194|15,195|16,196|17,197|18,198|19,199|20,200|21,201|22,202|23,203|24,204|25,205|26,206|27,207|28,208|29,209|30,210|31,211|32,212|33,213|34,214|35,215|36,216|37,217|38,218|39,219|40,220|41,221|42,222|43,223|44,224|45,225|46,226|47,227|48,228|49,229|50,230|51,231|52,232|53,233|54,234|55,235|56,236|57,237|58,238|59,239|60,240|61,241|62,242|63,243|64,244|65,245|66,246|67,247|68,248|69,249|70,250|71,251|72,252|73,253|74,254|75,255|76,256|77,257|78,258|79,259|80,260|81,261|82,262|83,263|84,264|85,265|86,266|87,267|88,268|89,269|90,270|91,271|92,272|93,273|94,274|95,275|96,276|97,277|98,278|99,279|100,280|101,281|102,282|103,283|104,284|105,285|106,286|107,287|108,288|109,289|110,290|111,291|112,292|113,293|114,294|115,295|116,296|117,297|118,298|119,299|120,300|121,301|122,302|123,303|124,304|125,305|126,306|127,307|128,308|129,309|130,310|131,311|132,312|133,313|134,314|135,315|136,316|137,317|138,318|139,319|140,320|141,321|142,322|143,323|144,324|145,325|146,326|147,327|148,328|149,329|150,330|151,331|152,332|153,333|154,334|155,335|156,336|157,337|158,338|159,339|160,340|161,341|162,342|163,343|164,344|165,345|166,346|167,347|168,348|169,349|170,350|171,351|172,352|173,353|174,354|175,355|176,356|177,357|178,358|179,359|180,360|361,1|361,2|361,3|361,4|361,5|361,6|361,7|361,8|361,9|361,10|361,11|361,12|361,13|361,14|361,15|361,16|361,17|361,18|361,19|361,20|361,21|361,22|361,23|361,24|361,25|361,26|361,27|361,28|361,29|361,30|361,31|361,32|361,33|361,34|361,35|361,36|361,37|361,38|361,39|361,40|361,41|361,42|361,43|361,44|361,45|361,46|361,47|361,48|361,49|361,50|361,51|361,52|361,53|361,54|361,55|361,56|361,57|361,58|361,59|361,60|361,61|361,62|361,63|361,64|361,65|361,66|361,67|361,68|361,69|361,70|361,71|361,72|361,73|361,74|361,75|361,76|361,77|361,78|361,79|361,80|361,81|361,82|361,83|361,84|361,85|361,86|361,87|361,88|361,89|361,90|361,91|361,92|361,93|361,94|361,95|361,96|361,97|361,98|361,99|361,100|361,101|361,102|361,103|361,104|361,105|361,106|361,107|361,108|361,109|361,110|361,111|361,112|361,113|361,114|361,115|361,116|361,117|361,118|361,119|361,120|361,121|361,122|361,123|361,124|361,125|361,126|361,127|361,128|361,129|361,130|361,131|361,132|361,133|361,134|361,135|361,136|361,137|361,138|361,139|361,140|361,141|361,142|361,143|361,144|361,145|361,146|361,147|361,148|361,149|361,150|361,151|361,152|361,153|361,154|361,155|361,156|361,157|361,158|361,159|361,160|361,161|361,162|361,163|361,164|361,165|361,166|361,167|361,168|361,169|361,170|361,171|361,172|361,173|361,174|361,175|361,176|361,177|361,178|361,179|361,180|361,181|361,182|361,183|361,184|361,185|361,186|361,187|361,188|361,189|361,190|361,191|361,192|361,193|361,194|361,195|361,196|361,197|361,198|361,199|361,200|361,201|361,202|361,203|361,204|361,205|361,206|361,207|361,208|361,209|361,210|361,211|361,212|361,213|361,214|361,215|361,216|361,217|361,218|361,219|361,220|361,221|361,222|361,223|361,224|361,225|361,226|361,227|361,228|361,229|361,230|361,231|361,232|361,233|361,234|361,235|361,236|361,237|361,238|361,239|361,240|361,241|361,242|361,243|361,244|361,245|361,246|361,247|361,248|361,249|361,250|361,251|361,252|361,253|361,254|361,255|361,256|361,257|361,258|361,259|361,260|361,261|361,262|361,263|361,264|361,265|361,266|361,267|361,268|361,269|361,270|361,271|361,272|361,273|361,274|361,275|361,276|361,277|361,278|361,279|361,280|361,281|361,282|361,283|361,284|361,285|361,286|361,287|361,288|361,289|361,290|361,291|361,292|361,293|361,294|361,295|361,296|361,297|361,298|361,299|361,300|361,301|361,302|361,303|361,304|361,305|361,306|361,307|361,308|361,309|361,310|361,311|361,312|361,313|361,314|361,315|361,316|361,317|361,318|361,319|361,320|361,321|361,322|361,323|361,324|361,325|361,326|361,327|361,328|361,329|361,330|361,331|361,332|361,333|361,334|361,335|361,336|361,337|361,338|361,339|361,340|361,341|361,342|361,343|361,344|361,345|361,346|361,347|361,348|361,349|361,350|361,351|361,352|361,353|361,354|361,355|361,356|361,357|361,358|361,359|361,360|1,362|2,362|3,362|4,362|5,362|6,362|7,362|8,362|9,362|10,362|11,362|12,362|13,362|14,362|15,362|16,362|17,362|18,362|19,362|20,362|21,362|22,362|23,362|24,362|25,362|26,362|27,362|28,362|29,362|30,362|31,362|32,362|33,362|34,362|35,362|36,362|37,362|38,362|39,362|40,362|41,362|42,362|43,362|44,362|45,362|46,362|47,362|48,362|49,362|50,362|51,362|52,362|53,362|54,362|55,362|56,362|57,362|58,362|59,362|60,362|61,362|62,362|63,362|64,362|65,362|66,362|67,362|68,362|69,362|70,362|71,362|72,362|73,362|74,362|75,362|76,362|77,362|78,362|79,362|80,362|81,362|82,362|83,362|84,362|85,362|86,362|87,362|88,362|89,362|90,362|91,362|92,362|93,362|94,362|95,362|96,362|97,362|98,362|99,362|100,362|101,362|102,362|103,362|104,362|105,362|106,362|107,362|108,362|109,362|110,362|111,362|112,362|113,362|114,362|115,362|116,362|117,362|118,362|119,362|120,362|121,362|122,362|123,362|124,362|125,362|126,362|127,362|128,362|129,362|130,362|131,362|132,362|133,362|134,362|135,362|136,362|137,362|138,362|139,362|140,362|141,362|142,362|143,362|144,362|145,362|146,362|147,362|148,362|149,362|150,362|151,362|152,362|153,362|154,362|155,362|156,362|157,362|158,362|159,362|160,362|161,362|162,362|163,362|164,362|165,362|166,362|167,362|168,362|169,362|170,362|171,362|172,362|173,362|174,362|175,362|176,362|177,362|178,362|179,362|180,362|181,362|182,362|183,362|184,362|185,362|186,362|187,362|188,362|189,362|190,362|191,362|192,362|193,362|194,362|195,362|196,362|197,362|198,362|199,362|200,362|201,362|202,362|203,362|204,362|205,362|206,362|207,362|208,362|209,362|210,362|211,362|212,362|213,362|214,362|215,362|216,362|217,362|218,362|219,362|220,362|221,362|222,362|223,362|224,362|225,362|226,362|227,362|228,362|229,362|230,362|231,362|232,362|233,362|234,362|235,362|236,362|237,362|238,362|239,362|240,362|241,362|242,362|243,362|244,362|245,362|246,362|247,362|248,362|249,362|250,362|251,362|252,362|253,362|254,362|255,362|256,362|257,362|258,362|259,362|260,362|261,362|262,362|263,362|264,362|265,362|266,362|267,362|268,362|269,362|270,362|271,362|272,362|273,362|274,362|275,362|276,362|277,362|278,362|279,362|280,362|281,362|282,362|283,362|284,362|285,362|286,362|287,362|288,362|289,362|290,362|291,362|292,362|293,362|294,362|295,362|296,362|297,362|298,362|299,362|300,362|301,362|302,362|303,362|304,362|305,362|306,362|307,362|308,362|309,362|310,362|311,362|312,362|313,362|314,362|315,362|316,362|317,362|318,362|319,362|320,362|321,362|322,362|323,362|324,362|325,362|326,362|327,362|328,362|329,362|330,362|331,362|332,362|333,362|334,362|335,362|336,362|337,362|338,362|339,362|340,362|341,362|342,362|343,362|344,362|345,362|346,362|347,362|348,362|349,362|350,362|351,362|352,362|353,362|354,362|355,362|356,362|357,362|358,362|359,362|360,362|];
