GRIDRANGE_X = 1..20;
GRIDRANGE_Y = 1..15;

BUILDING = { SHR1, SHR2, SHR3, RU1, RU2, FU1, FU2, PACKU1 };
NS_WIDTH = [    3,    3,    3,   3,   3,   3,   3,      6 ];
EW_WIDTH = [    3,    3,    3,   3,   3,   3,   3,      4 ];

RESOURCE = { ORIG_ORE, ORIG_PWDR, FE_ORE, FE, FE_PART };
BELTS    = [        3,         3,      2,  2,       2 ];

CONVEYOR_FROM     = [<>      , <>      , <>      , <>    , <>    , RU1, RU2,      SHR1,      SHR2,      SHR3,     FU1,     FU2];
CONVEYOR_TO       = [    SHR1,     SHR2,     SHR3,    RU1,    RU2, FU1, FU2,    PACKU1,    PACKU1,    PACKU1,  PACKU1,  PACKU1];
CONVEYOR_RESOURCE = [ORIG_ORE, ORIG_ORE, ORIG_ORE, FE_ORE, FE_ORE,  FE,  FE, ORIG_PWDR, ORIG_PWDR, ORIG_PWDR, FE_PART, FE_PART];

PICKUP_X = [1, 1, 1,  1,  1];
PICKUP_Y = [2, 5, 8, 11, 14];
PICKUP_ORIENTATION = [EAST, EAST, EAST, EAST, EAST];

arc = [|1,2|2,3|3,4|4,5|5,6|6,7|7,8|8,9|9,10|10,11|11,12|12,13|13,14|14,15|15,16|16,17|17,18|18,19|19,20|21,22|22,23|23,24|24,25|25,26|26,27|27,28|28,29|29,30|30,31|31,32|32,33|33,34|34,35|35,36|36,37|37,38|38,39|39,40|41,42|42,43|43,44|44,45|45,46|46,47|47,48|48,49|49,50|50,51|51,52|52,53|53,54|54,55|55,56|56,57|57,58|58,59|59,60|61,62|62,63|63,64|64,65|65,66|66,67|67,68|68,69|69,70|70,71|71,72|72,73|73,74|74,75|75,76|76,77|77,78|78,79|79,80|81,82|82,83|83,84|84,85|85,86|86,87|87,88|88,89|89,90|90,91|91,92|92,93|93,94|94,95|95,96|96,97|97,98|98,99|99,100|101,102|102,103|103,104|104,105|105,106|106,107|107,108|108,109|109,110|110,111|111,112|112,113|113,114|114,115|115,116|116,117|117,118|118,119|119,120|121,122|122,123|123,124|124,125|125,126|126,127|127,128|128,129|129,130|130,131|131,132|132,133|133,134|134,135|135,136|136,137|137,138|138,139|139,140|141,142|142,143|143,144|144,145|145,146|146,147|147,148|148,149|149,150|150,151|151,152|152,153|153,154|154,155|155,156|156,157|157,158|158,159|159,160|161,162|162,163|163,164|164,165|165,166|166,167|167,168|168,169|169,170|170,171|171,172|172,173|173,174|174,175|175,176|176,177|177,178|178,179|179,180|181,182|182,183|183,184|184,185|185,186|186,187|187,188|188,189|189,190|190,191|191,192|192,193|193,194|194,195|195,196|196,197|197,198|198,199|199,200|201,202|202,203|203,204|204,205|205,206|206,207|207,208|208,209|209,210|210,211|211,212|212,213|213,214|214,215|215,216|216,217|217,218|218,219|219,220|221,222|222,223|223,224|224,225|225,226|226,227|227,228|228,229|229,230|230,231|231,232|232,233|233,234|234,235|235,236|236,237|237,238|238,239|239,240|241,242|242,243|243,244|244,245|245,246|246,247|247,248|248,249|249,250|250,251|251,252|252,253|253,254|254,255|255,256|256,257|257,258|258,259|259,260|261,262|262,263|263,264|264,265|265,266|266,267|267,268|268,269|269,270|270,271|271,272|272,273|273,274|274,275|275,276|276,277|277,278|278,279|279,280|281,282|282,283|283,284|284,285|285,286|286,287|287,288|288,289|289,290|290,291|291,292|292,293|293,294|294,295|295,296|296,297|297,298|298,299|299,300|301,321|302,322|303,323|304,324|305,325|306,326|307,327|308,328|309,329|310,330|311,331|312,332|313,333|314,334|315,335|316,336|317,337|318,338|319,339|320,340|321,341|322,342|323,343|324,344|325,345|326,346|327,347|328,348|329,349|330,350|331,351|332,352|333,353|334,354|335,355|336,356|337,357|338,358|339,359|340,360|341,361|342,362|343,363|344,364|345,365|346,366|347,367|348,368|349,369|350,370|351,371|352,372|353,373|354,374|355,375|356,376|357,377|358,378|359,379|360,380|361,381|362,382|363,383|364,384|365,385|366,386|367,387|368,388|369,389|370,390|371,391|372,392|373,393|374,394|375,395|376,396|377,397|378,398|379,399|380,400|381,401|382,402|383,403|384,404|385,405|386,406|387,407|388,408|389,409|390,410|391,411|392,412|393,413|394,414|395,415|396,416|397,417|398,418|399,419|400,420|401,421|402,422|403,423|404,424|405,425|406,426|407,427|408,428|409,429|410,430|411,431|412,432|413,433|414,434|415,435|416,436|417,437|418,438|419,439|420,440|421,441|422,442|423,443|424,444|425,445|426,446|427,447|428,448|429,449|430,450|431,451|432,452|433,453|434,454|435,455|436,456|437,457|438,458|439,459|440,460|441,461|442,462|443,463|444,464|445,465|446,466|447,467|448,468|449,469|450,470|451,471|452,472|453,473|454,474|455,475|456,476|457,477|458,478|459,479|460,480|461,481|462,482|463,483|464,484|465,485|466,486|467,487|468,488|469,489|470,490|471,491|472,492|473,493|474,494|475,495|476,496|477,497|478,498|479,499|480,500|481,501|482,502|483,503|484,504|485,505|486,506|487,507|488,508|489,509|490,510|491,511|492,512|493,513|494,514|495,515|496,516|497,517|498,518|499,519|500,520|501,521|502,522|503,523|504,524|505,525|506,526|507,527|508,528|509,529|510,530|511,531|512,532|513,533|514,534|515,535|516,536|517,537|518,538|519,539|520,540|521,541|522,542|523,543|524,544|525,545|526,546|527,547|528,548|529,549|530,550|531,551|532,552|533,553|534,554|535,555|536,556|537,557|538,558|539,559|540,560|541,561|542,562|543,563|544,564|545,565|546,566|547,567|548,568|549,569|550,570|551,571|552,572|553,573|554,574|555,575|556,576|557,577|558,578|559,579|560,580|561,581|562,582|563,583|564,584|565,585|566,586|567,587|568,588|569,589|570,590|571,591|572,592|573,593|574,594|575,595|576,596|577,597|578,598|579,599|580,600|1,301|2,302|3,303|4,304|5,305|6,306|7,307|8,308|9,309|10,310|11,311|12,312|13,313|14,314|15,315|16,316|17,317|18,318|19,319|20,320|21,321|22,322|23,323|24,324|25,325|26,326|27,327|28,328|29,329|30,330|31,331|32,332|33,333|34,334|35,335|36,336|37,337|38,338|39,339|40,340|41,341|42,342|43,343|44,344|45,345|46,346|47,347|48,348|49,349|50,350|51,351|52,352|53,353|54,354|55,355|56,356|57,357|58,358|59,359|60,360|61,361|62,362|63,363|64,364|65,365|66,366|67,367|68,368|69,369|70,370|71,371|72,372|73,373|74,374|75,375|76,376|77,377|78,378|79,379|80,380|81,381|82,382|83,383|84,384|85,385|86,386|87,387|88,388|89,389|90,390|91,391|92,392|93,393|94,394|95,395|96,396|97,397|98,398|99,399|100,400|101,401|102,402|103,403|104,404|105,405|106,406|107,407|108,408|109,409|110,410|111,411|112,412|113,413|114,414|115,415|116,416|117,417|118,418|119,419|120,420|121,421|122,422|123,423|124,424|125,425|126,426|127,427|128,428|129,429|130,430|131,431|132,432|133,433|134,434|135,435|136,436|137,437|138,438|139,439|140,440|141,441|142,442|143,443|144,444|145,445|146,446|147,447|148,448|149,449|150,450|151,451|152,452|153,453|154,454|155,455|156,456|157,457|158,458|159,459|160,460|161,461|162,462|163,463|164,464|165,465|166,466|167,467|168,468|169,469|170,470|171,471|172,472|173,473|174,474|175,475|176,476|177,477|178,478|179,479|180,480|181,481|182,482|183,483|184,484|185,485|186,486|187,487|188,488|189,489|190,490|191,491|192,492|193,493|194,494|195,495|196,496|197,497|198,498|199,499|200,500|201,501|202,502|203,503|204,504|205,505|206,506|207,507|208,508|209,509|210,510|211,511|212,512|213,513|214,514|215,515|216,516|217,517|218,518|219,519|220,520|221,521|222,522|223,523|224,524|225,525|226,526|227,527|228,528|229,529|230,530|231,531|232,532|233,533|234,534|235,535|236,536|237,537|238,538|239,539|240,540|241,541|242,542|243,543|244,544|245,545|246,546|247,547|248,548|249,549|250,550|251,551|252,552|253,553|254,554|255,555|256,556|257,557|258,558|259,559|260,560|261,561|262,562|263,563|264,564|265,565|266,566|267,567|268,568|269,569|270,570|271,571|272,572|273,573|274,574|275,575|276,576|277,577|278,578|279,579|280,580|281,581|282,582|283,583|284,584|285,585|286,586|287,587|288,588|289,589|290,590|291,591|292,592|293,593|294,594|295,595|296,596|297,597|298,598|299,599|300,600|601,1|601,2|601,3|601,4|601,5|601,6|601,7|601,8|601,9|601,10|601,11|601,12|601,13|601,14|601,15|601,16|601,17|601,18|601,19|601,20|601,21|601,22|601,23|601,24|601,25|601,26|601,27|601,28|601,29|601,30|601,31|601,32|601,33|601,34|601,35|601,36|601,37|601,38|601,39|601,40|601,41|601,42|601,43|601,44|601,45|601,46|601,47|601,48|601,49|601,50|601,51|601,52|601,53|601,54|601,55|601,56|601,57|601,58|601,59|601,60|601,61|601,62|601,63|601,64|601,65|601,66|601,67|601,68|601,69|601,70|601,71|601,72|601,73|601,74|601,75|601,76|601,77|601,78|601,79|601,80|601,81|601,82|601,83|601,84|601,85|601,86|601,87|601,88|601,89|601,90|601,91|601,92|601,93|601,94|601,95|601,96|601,97|601,98|601,99|601,100|601,101|601,102|601,103|601,104|601,105|601,106|601,107|601,108|601,109|601,110|601,111|601,112|601,113|601,114|601,115|601,116|601,117|601,118|601,119|601,120|601,121|601,122|601,123|601,124|601,125|601,126|601,127|601,128|601,129|601,130|601,131|601,132|601,133|601,134|601,135|601,136|601,137|601,138|601,139|601,140|601,141|601,142|601,143|601,144|601,145|601,146|601,147|601,148|601,149|601,150|601,151|601,152|601,153|601,154|601,155|601,156|601,157|601,158|601,159|601,160|601,161|601,162|601,163|601,164|601,165|601,166|601,167|601,168|601,169|601,170|601,171|601,172|601,173|601,174|601,175|601,176|601,177|601,178|601,179|601,180|601,181|601,182|601,183|601,184|601,185|601,186|601,187|601,188|601,189|601,190|601,191|601,192|601,193|601,194|601,195|601,196|601,197|601,198|601,199|601,200|601,201|601,202|601,203|601,204|601,205|601,206|601,207|601,208|601,209|601,210|601,211|601,212|601,213|601,214|601,215|601,216|601,217|601,218|601,219|601,220|601,221|601,222|601,223|601,224|601,225|601,226|601,227|601,228|601,229|601,230|601,231|601,232|601,233|601,234|601,235|601,236|601,237|601,238|601,239|601,240|601,241|601,242|601,243|601,244|601,245|601,246|601,247|601,248|601,249|601,250|601,251|601,252|601,253|601,254|601,255|601,256|601,257|601,258|601,259|601,260|601,261|601,262|601,263|601,264|601,265|601,266|601,267|601,268|601,269|601,270|601,271|601,272|601,273|601,274|601,275|601,276|601,277|601,278|601,279|601,280|601,281|601,282|601,283|601,284|601,285|601,286|601,287|601,288|601,289|601,290|601,291|601,292|601,293|601,294|601,295|601,296|601,297|601,298|601,299|601,300|601,301|601,302|601,303|601,304|601,305|601,306|601,307|601,308|601,309|601,310|601,311|601,312|601,313|601,314|601,315|601,316|601,317|601,318|601,319|601,320|601,321|601,322|601,323|601,324|601,325|601,326|601,327|601,328|601,329|601,330|601,331|601,332|601,333|601,334|601,335|601,336|601,337|601,338|601,339|601,340|601,341|601,342|601,343|601,344|601,345|601,346|601,347|601,348|601,349|601,350|601,351|601,352|601,353|601,354|601,355|601,356|601,357|601,358|601,359|601,360|601,361|601,362|601,363|601,364|601,365|601,366|601,367|601,368|601,369|601,370|601,371|601,372|601,373|601,374|601,375|601,376|601,377|601,378|601,379|601,380|601,381|601,382|601,383|601,384|601,385|601,386|601,387|601,388|601,389|601,390|601,391|601,392|601,393|601,394|601,395|601,396|601,397|601,398|601,399|601,400|601,401|601,402|601,403|601,404|601,405|601,406|601,407|601,408|601,409|601,410|601,411|601,412|601,413|601,414|601,415|601,416|601,417|601,418|601,419|601,420|601,421|601,422|601,423|601,424|601,425|601,426|601,427|601,428|601,429|601,430|601,431|601,432|601,433|601,434|601,435|601,436|601,437|601,438|601,439|601,440|601,441|601,442|601,443|601,444|601,445|601,446|601,447|601,448|601,449|601,450|601,451|601,452|601,453|601,454|601,455|601,456|601,457|601,458|601,459|601,460|601,461|601,462|601,463|601,464|601,465|601,466|601,467|601,468|601,469|601,470|601,471|601,472|601,473|601,474|601,475|601,476|601,477|601,478|601,479|601,480|601,481|601,482|601,483|601,484|601,485|601,486|601,487|601,488|601,489|601,490|601,491|601,492|601,493|601,494|601,495|601,496|601,497|601,498|601,499|601,500|601,501|601,502|601,503|601,504|601,505|601,506|601,507|601,508|601,509|601,510|601,511|601,512|601,513|601,514|601,515|601,516|601,517|601,518|601,519|601,520|601,521|601,522|601,523|601,524|601,525|601,526|601,527|601,528|601,529|601,530|601,531|601,532|601,533|601,534|601,535|601,536|601,537|601,538|601,539|601,540|601,541|601,542|601,543|601,544|601,545|601,546|601,547|601,548|601,549|601,550|601,551|601,552|601,553|601,554|601,555|601,556|601,557|601,558|601,559|601,560|601,561|601,562|601,563|601,564|601,565|601,566|601,567|601,568|601,569|601,570|601,571|601,572|601,573|601,574|601,575|601,576|601,577|601,578|601,579|601,580|601,581|601,582|601,583|601,584|601,585|601,586|601,587|601,588|601,589|601,590|601,591|601,592|601,593|601,594|601,595|601,596|601,597|601,598|601,599|601,600|1,602|2,602|3,602|4,602|5,602|6,602|7,602|8,602|9,602|10,602|11,602|12,602|13,602|14,602|15,602|16,602|17,602|18,602|19,602|20,602|21,602|22,602|23,602|24,602|25,602|26,602|27,602|28,602|29,602|30,602|31,602|32,602|33,602|34,602|35,602|36,602|37,602|38,602|39,602|40,602|41,602|42,602|43,602|44,602|45,602|46,602|47,602|48,602|49,602|50,602|51,602|52,602|53,602|54,602|55,602|56,602|57,602|58,602|59,602|60,602|61,602|62,602|63,602|64,602|65,602|66,602|67,602|68,602|69,602|70,602|71,602|72,602|73,602|74,602|75,602|76,602|77,602|78,602|79,602|80,602|81,602|82,602|83,602|84,602|85,602|86,602|87,602|88,602|89,602|90,602|91,602|92,602|93,602|94,602|95,602|96,602|97,602|98,602|99,602|100,602|101,602|102,602|103,602|104,602|105,602|106,602|107,602|108,602|109,602|110,602|111,602|112,602|113,602|114,602|115,602|116,602|117,602|118,602|119,602|120,602|121,602|122,602|123,602|124,602|125,602|126,602|127,602|128,602|129,602|130,602|131,602|132,602|133,602|134,602|135,602|136,602|137,602|138,602|139,602|140,602|141,602|142,602|143,602|144,602|145,602|146,602|147,602|148,602|149,602|150,602|151,602|152,602|153,602|154,602|155,602|156,602|157,602|158,602|159,602|160,602|161,602|162,602|163,602|164,602|165,602|166,602|167,602|168,602|169,602|170,602|171,602|172,602|173,602|174,602|175,602|176,602|177,602|178,602|179,602|180,602|181,602|182,602|183,602|184,602|185,602|186,602|187,602|188,602|189,602|190,602|191,602|192,602|193,602|194,602|195,602|196,602|197,602|198,602|199,602|200,602|201,602|202,602|203,602|204,602|205,602|206,602|207,602|208,602|209,602|210,602|211,602|212,602|213,602|214,602|215,602|216,602|217,602|218,602|219,602|220,602|221,602|222,602|223,602|224,602|225,602|226,602|227,602|228,602|229,602|230,602|231,602|232,602|233,602|234,602|235,602|236,602|237,602|238,602|239,602|240,602|241,602|242,602|243,602|244,602|245,602|246,602|247,602|248,602|249,602|250,602|251,602|252,602|253,602|254,602|255,602|256,602|257,602|258,602|259,602|260,602|261,602|262,602|263,602|264,602|265,602|266,602|267,602|268,602|269,602|270,602|271,602|272,602|273,602|274,602|275,602|276,602|277,602|278,602|279,602|280,602|281,602|282,602|283,602|284,602|285,602|286,602|287,602|288,602|289,602|290,602|291,602|292,602|293,602|294,602|295,602|296,602|297,602|298,602|299,602|300,602|301,602|302,602|303,602|304,602|305,602|306,602|307,602|308,602|309,602|310,602|311,602|312,602|313,602|314,602|315,602|316,602|317,602|318,602|319,602|320,602|321,602|322,602|323,602|324,602|325,602|326,602|327,602|328,602|329,602|330,602|331,602|332,602|333,602|334,602|335,602|336,602|337,602|338,602|339,602|340,602|341,602|342,602|343,602|344,602|345,602|346,602|347,602|348,602|349,602|350,602|351,602|352,602|353,602|354,602|355,602|356,602|357,602|358,602|359,602|360,602|361,602|362,602|363,602|364,602|365,602|366,602|367,602|368,602|369,602|370,602|371,602|372,602|373,602|374,602|375,602|376,602|377,602|378,602|379,602|380,602|381,602|382,602|383,602|384,602|385,602|386,602|387,602|388,602|389,602|390,602|391,602|392,602|393,602|394,602|395,602|396,602|397,602|398,602|399,602|400,602|401,602|402,602|403,602|404,602|405,602|406,602|407,602|408,602|409,602|410,602|411,602|412,602|413,602|414,602|415,602|416,602|417,602|418,602|419,602|420,602|421,602|422,602|423,602|424,602|425,602|426,602|427,602|428,602|429,602|430,602|431,602|432,602|433,602|434,602|435,602|436,602|437,602|438,602|439,602|440,602|441,602|442,602|443,602|444,602|445,602|446,602|447,602|448,602|449,602|450,602|451,602|452,602|453,602|454,602|455,602|456,602|457,602|458,602|459,602|460,602|461,602|462,602|463,602|464,602|465,602|466,602|467,602|468,602|469,602|470,602|471,602|472,602|473,602|474,602|475,602|476,602|477,602|478,602|479,602|480,602|481,602|482,602|483,602|484,602|485,602|486,602|487,602|488,602|489,602|490,602|491,602|492,602|493,602|494,602|495,602|496,602|497,602|498,602|499,602|500,602|501,602|502,602|503,602|504,602|505,602|506,602|507,602|508,602|509,602|510,602|511,602|512,602|513,602|514,602|515,602|516,602|517,602|518,602|519,602|520,602|521,602|522,602|523,602|524,602|525,602|526,602|527,602|528,602|529,602|530,602|531,602|532,602|533,602|534,602|535,602|536,602|537,602|538,602|539,602|540,602|541,602|542,602|543,602|544,602|545,602|546,602|547,602|548,602|549,602|550,602|551,602|552,602|553,602|554,602|555,602|556,602|557,602|558,602|559,602|560,602|561,602|562,602|563,602|564,602|565,602|566,602|567,602|568,602|569,602|570,602|571,602|572,602|573,602|574,602|575,602|576,602|577,602|578,602|579,602|580,602|581,602|582,602|583,602|584,602|585,602|586,602|587,602|588,602|589,602|590,602|591,602|592,602|593,602|594,602|595,602|596,602|597,602|598,602|599,602|600,602|];
